(set-logic HORN)
(set-info :source |
    Benchmark: C_VC
    Output by Princess (http://www.philipp.ruemmer.org/princess.shtml)
|)
(set-info :status sat)
(declare-heap Heap Addr HeapObject
 defObj
 ((HeapObject 0)) (
  (
   (O_Int (getInt Int))
   (O_UInt (getUInt Int))
   (O_Addr (getAddr Addr))
   (defObj)
  )
))
(declare-fun inv_main11 (Heap AddrRange AddrRange Int Int) Bool)
(declare-fun inv_main13 (Heap AddrRange AddrRange Int Int) Bool)
(declare-fun inv_main19 (Heap AddrRange AddrRange Int Int) Bool)
(declare-fun inv_main21 (Heap AddrRange AddrRange Int Int) Bool)
(declare-fun inv_main23 (Heap AddrRange AddrRange Int Int) Bool)
(declare-fun inv_main26 (Heap AddrRange AddrRange Int Int Int) Bool)
(declare-fun inv_main6 (Heap AddrRange AddrRange Int Int) Bool)
(declare-fun inv_main9 (Heap AddrRange AddrRange Int Int) Bool)
(assert (forall ((var0 Int) (var1 Int) (var2 AddrRange) (var3 AddrRange) (var4 Int) (var5 Heap) (var6 AddrRange) (var7 Int) (var8 Heap) (var9 Heap)) (or (not (and (and (= var9 emptyHeap) (and (= var8 (newBatchHeap (batchAlloc emptyHeap (O_Int var7) 100000))) (= var6 (newAddrRange (batchAlloc emptyHeap (O_Int var7) 100000))))) (and (and (= var5 (newBatchHeap (batchAlloc emptyHeap (O_Int var4) 100000))) (= var3 var6)) (= var2 (newAddrRange (batchAlloc emptyHeap (O_Int var4) 100000)))))) (inv_main6 var5 var3 var2 var1 var0))))
(assert (forall ((var0 Int) (var1 Int) (var2 AddrRange) (var3 AddrRange) (var4 Heap)) (or (not (and (inv_main19 var4 var3 var2 var1 var0) (and (is-O_Int (read var4 (nthAddrRange var3 var0))) (is-O_Int (read var4 (nthAddrRange var3 var0)))))) (inv_main21 (write var4 (nthAddrRange var3 var0) (O_Int var1)) var3 var2 var1 var0))))
(assert (forall ((var0 Int) (var1 Int) (var2 AddrRange) (var3 AddrRange) (var4 Heap)) (or (not (and (inv_main13 var4 var3 var2 var1 var0) (not (<= 0 (+ (+ 100000 (* (- 1) var0)) (- 1)))))) (inv_main23 var4 var3 var2 var1 0))))
(assert (forall ((var0 Int) (var1 Int) (var2 Int) (var3 AddrRange) (var4 AddrRange) (var5 Heap)) (or (not (and (inv_main26 var5 var4 var3 var2 var1 var0) (<= 0 (+ (+ 100000 (* (- 1) (+ var1 1))) (- 1))))) (inv_main23 var5 var4 var3 var2 (+ var1 1)))))
(assert (forall ((var0 Int) (var1 Int) (var2 AddrRange) (var3 AddrRange) (var4 Heap)) (or (not (and (inv_main9 var4 var3 var2 var1 var0) (and (is-O_Int (read var4 (nthAddrRange var3 var0))) (is-O_Int (read var4 (nthAddrRange var3 var0)))))) (inv_main11 (write var4 (nthAddrRange var3 var0) (O_Int var0)) var3 var2 var1 var0))))
(assert (forall ((var0 Int) (var1 Int) (var2 AddrRange) (var3 AddrRange) (var4 Heap)) (or (not (inv_main6 var4 var3 var2 var1 var0)) (inv_main9 var4 var3 var2 var1 0))))
(assert (forall ((var0 Int) (var1 AddrRange) (var2 AddrRange) (var3 Heap) (var4 Int) (var5 Int) (var6 Int) (var7 AddrRange) (var8 AddrRange) (var9 Heap)) (or (not (and (inv_main11 var9 var8 var7 var6 var5) (and (<= 0 (+ (+ 100000 (* (- 1) (+ var4 1))) (- 1))) (and (and (is-O_Int (read var9 (nthAddrRange var7 var5))) (is-O_Int (read var9 (nthAddrRange var7 var5)))) (and (and (and (and (= var3 (write var9 (nthAddrRange var7 var5) (O_Int var5))) (= var2 var8)) (= var1 var7)) (= var0 var6)) (= var4 var5)))))) (inv_main9 var3 var2 var1 var0 (+ var4 1)))))
(assert (forall ((var0 Int) (var1 Int) (var2 Int) (var3 AddrRange) (var4 AddrRange) (var5 Heap) (var6 Int) (var7 Int) (var8 AddrRange) (var9 AddrRange) (var10 Heap)) (or (not (and (inv_main23 var10 var9 var8 var7 var6) (and (and (and (and (and (and (is-O_Int (read var10 (nthAddrRange var9 var6))) (is-O_Int (read var10 (nthAddrRange var8 var6)))) (not (= (getInt (read var10 (nthAddrRange var9 var6))) (getInt (read var10 (nthAddrRange var8 var6)))))) (is-O_Int (read var10 (nthAddrRange var8 var6)))) (is-O_Int (read var10 (nthAddrRange var9 var6)))) (is-O_Int (read var10 (nthAddrRange var9 var6)))) (and (and (and (and (and (= var5 var10) (= var4 var9)) (= var3 var8)) (= var2 var7)) (= var1 var6)) (or (and (= (getInt (read var10 (nthAddrRange var8 var6))) (* (getInt (read var10 (nthAddrRange var9 var6))) (getInt (read var10 (nthAddrRange var9 var6))))) (= var0 1)) (and (not (= (getInt (read var10 (nthAddrRange var8 var6))) (* (getInt (read var10 (nthAddrRange var9 var6))) (getInt (read var10 (nthAddrRange var9 var6)))))) (= var0 0))))))) (inv_main26 var5 var4 var3 var2 var1 var0))))
(assert (forall ((var0 Int) (var1 Int) (var2 AddrRange) (var3 AddrRange) (var4 Heap)) (or (not (and (inv_main23 var4 var3 var2 var1 var0) (and (and (is-O_Int (read var4 (nthAddrRange var3 var0))) (is-O_Int (read var4 (nthAddrRange var2 var0)))) (= (getInt (read var4 (nthAddrRange var3 var0))) (getInt (read var4 (nthAddrRange var2 var0))))))) (inv_main26 var4 var3 var2 var1 var0 1))))
(assert (forall ((var0 Int) (var1 AddrRange) (var2 AddrRange) (var3 Heap) (var4 Int) (var5 Int) (var6 Int) (var7 AddrRange) (var8 AddrRange) (var9 Heap)) (or (not (and (inv_main11 var9 var8 var7 var6 var5) (and (not (<= 0 (+ (+ 100000 (* (- 1) (+ var4 1))) (- 1)))) (and (and (is-O_Int (read var9 (nthAddrRange var7 var5))) (is-O_Int (read var9 (nthAddrRange var7 var5)))) (and (and (and (and (= var3 (write var9 (nthAddrRange var7 var5) (O_Int var5))) (= var2 var8)) (= var1 var7)) (= var0 var6)) (= var4 var5)))))) (inv_main13 var3 var2 var1 var0 0))))
(assert (forall ((var0 Int) (var1 Int) (var2 AddrRange) (var3 AddrRange) (var4 Heap) (var5 Int) (var6 Int) (var7 AddrRange) (var8 AddrRange) (var9 Heap)) (or (not (and (inv_main21 var9 var8 var7 var6 var5) (and (and (is-O_Int (read var9 (nthAddrRange var7 var5))) (is-O_Int (read var9 (nthAddrRange var7 var5)))) (and (and (and (and (= var4 (write var9 (nthAddrRange var7 var5) (O_Int (* var6 var6)))) (= var3 var8)) (= var2 var7)) (= var1 var6)) (= var0 var5))))) (inv_main13 var4 var3 var2 var1 (+ var0 1)))))
(assert (forall ((var0 Int) (var1 Int) (var2 Int) (var3 AddrRange) (var4 AddrRange) (var5 Heap)) (or (not (and (inv_main13 var5 var4 var3 var2 var1) (and (= var0 0) (<= 0 (+ (+ 100000 (* (- 1) var1)) (- 1)))))) (inv_main13 var5 var4 var3 var2 (+ var1 1)))))
(assert (forall ((var0 Int) (var1 Int) (var2 Int) (var3 Int) (var4 AddrRange) (var5 AddrRange) (var6 Heap)) (or (not (and (inv_main13 var6 var5 var4 var3 var2) (and (not (= var1 0)) (<= 0 (+ (+ 100000 (* (- 1) var2)) (- 1)))))) (inv_main19 var6 var5 var4 var0 var2))))
(assert (forall ((var0 Int) (var1 Int) (var2 AddrRange) (var3 AddrRange) (var4 Heap)) (not (and (inv_main9 var4 var3 var2 var1 var0) (not (is-O_Int (read var4 (nthAddrRange var3 var0))))))))
(assert (forall ((var0 Int) (var1 Int) (var2 AddrRange) (var3 AddrRange) (var4 Heap)) (not (and (inv_main9 var4 var3 var2 var1 var0) (and (is-O_Int (read var4 (nthAddrRange var3 var0))) (not (within var3 (nthAddrRange var3 var0))))))))
(assert (forall ((var0 Int) (var1 Int) (var2 AddrRange) (var3 AddrRange) (var4 Heap)) (not (and (inv_main9 var4 var3 var2 var1 var0) (and (is-O_Int (read var4 (nthAddrRange var3 var0))) (not (is-O_Int (read var4 (nthAddrRange var3 var0)))))))))
(assert (forall ((var0 Int) (var1 Int) (var2 AddrRange) (var3 AddrRange) (var4 Heap)) (not (and (inv_main11 var4 var3 var2 var1 var0) (not (is-O_Int (read var4 (nthAddrRange var2 var0))))))))
(assert (forall ((var0 Int) (var1 Int) (var2 AddrRange) (var3 AddrRange) (var4 Heap)) (not (and (inv_main11 var4 var3 var2 var1 var0) (and (is-O_Int (read var4 (nthAddrRange var2 var0))) (not (within var2 (nthAddrRange var2 var0))))))))
(assert (forall ((var0 Int) (var1 Int) (var2 AddrRange) (var3 AddrRange) (var4 Heap)) (not (and (inv_main11 var4 var3 var2 var1 var0) (and (is-O_Int (read var4 (nthAddrRange var2 var0))) (not (is-O_Int (read var4 (nthAddrRange var2 var0)))))))))
(assert (forall ((var0 Int) (var1 Int) (var2 AddrRange) (var3 AddrRange) (var4 Heap)) (not (and (inv_main19 var4 var3 var2 var1 var0) (not (is-O_Int (read var4 (nthAddrRange var3 var0))))))))
(assert (forall ((var0 Int) (var1 Int) (var2 AddrRange) (var3 AddrRange) (var4 Heap)) (not (and (inv_main19 var4 var3 var2 var1 var0) (and (is-O_Int (read var4 (nthAddrRange var3 var0))) (not (within var3 (nthAddrRange var3 var0))))))))
(assert (forall ((var0 Int) (var1 Int) (var2 AddrRange) (var3 AddrRange) (var4 Heap)) (not (and (inv_main19 var4 var3 var2 var1 var0) (and (is-O_Int (read var4 (nthAddrRange var3 var0))) (not (is-O_Int (read var4 (nthAddrRange var3 var0)))))))))
(assert (forall ((var0 Int) (var1 Int) (var2 AddrRange) (var3 AddrRange) (var4 Heap)) (not (and (inv_main21 var4 var3 var2 var1 var0) (not (is-O_Int (read var4 (nthAddrRange var2 var0))))))))
(assert (forall ((var0 Int) (var1 Int) (var2 AddrRange) (var3 AddrRange) (var4 Heap)) (not (and (inv_main21 var4 var3 var2 var1 var0) (and (is-O_Int (read var4 (nthAddrRange var2 var0))) (not (within var2 (nthAddrRange var2 var0))))))))
(assert (forall ((var0 Int) (var1 Int) (var2 AddrRange) (var3 AddrRange) (var4 Heap)) (not (and (inv_main21 var4 var3 var2 var1 var0) (and (is-O_Int (read var4 (nthAddrRange var2 var0))) (not (is-O_Int (read var4 (nthAddrRange var2 var0)))))))))
(assert (forall ((var0 Int) (var1 Int) (var2 AddrRange) (var3 AddrRange) (var4 Heap)) (not (and (inv_main23 var4 var3 var2 var1 var0) (not (is-O_Int (read var4 (nthAddrRange var3 var0))))))))
(assert (forall ((var0 Int) (var1 Int) (var2 AddrRange) (var3 AddrRange) (var4 Heap)) (not (and (inv_main23 var4 var3 var2 var1 var0) (not (within var3 (nthAddrRange var3 var0)))))))
(assert (forall ((var0 Int) (var1 Int) (var2 AddrRange) (var3 AddrRange) (var4 Heap)) (not (and (inv_main23 var4 var3 var2 var1 var0) (not (is-O_Int (read var4 (nthAddrRange var2 var0))))))))
(assert (forall ((var0 Int) (var1 Int) (var2 AddrRange) (var3 AddrRange) (var4 Heap)) (not (and (inv_main23 var4 var3 var2 var1 var0) (not (within var2 (nthAddrRange var2 var0)))))))
(assert (forall ((var0 Int) (var1 Int) (var2 AddrRange) (var3 AddrRange) (var4 Heap)) (not (and (inv_main23 var4 var3 var2 var1 var0) (not (is-O_Int (read var4 (nthAddrRange var2 var0))))))))
(assert (forall ((var0 Int) (var1 Int) (var2 AddrRange) (var3 AddrRange) (var4 Heap)) (not (and (inv_main23 var4 var3 var2 var1 var0) (not (within var2 (nthAddrRange var2 var0)))))))
(assert (forall ((var0 Int) (var1 Int) (var2 AddrRange) (var3 AddrRange) (var4 Heap)) (not (and (inv_main23 var4 var3 var2 var1 var0) (not (is-O_Int (read var4 (nthAddrRange var3 var0))))))))
(assert (forall ((var0 Int) (var1 Int) (var2 AddrRange) (var3 AddrRange) (var4 Heap)) (not (and (inv_main23 var4 var3 var2 var1 var0) (not (within var3 (nthAddrRange var3 var0)))))))
(assert (forall ((var0 Int) (var1 Int) (var2 AddrRange) (var3 AddrRange) (var4 Heap)) (not (and (inv_main23 var4 var3 var2 var1 var0) (not (is-O_Int (read var4 (nthAddrRange var3 var0))))))))
(assert (forall ((var0 Int) (var1 Int) (var2 AddrRange) (var3 AddrRange) (var4 Heap)) (not (and (inv_main23 var4 var3 var2 var1 var0) (not (within var3 (nthAddrRange var3 var0)))))))
(assert (forall ((var0 Int) (var1 Int) (var2 AddrRange) (var3 AddrRange) (var4 Heap)) (not (and (inv_main23 var4 var3 var2 var1 var0) (not (is-O_Int (read var4 (nthAddrRange var3 var0))))))))
(assert (forall ((var0 Int) (var1 Int) (var2 AddrRange) (var3 AddrRange) (var4 Heap)) (not (and (inv_main23 var4 var3 var2 var1 var0) (and (is-O_Int (read var4 (nthAddrRange var3 var0))) (not (within var3 (nthAddrRange var3 var0))))))))
(assert (forall ((var0 Int) (var1 Int) (var2 AddrRange) (var3 AddrRange) (var4 Heap)) (not (and (inv_main23 var4 var3 var2 var1 var0) (and (is-O_Int (read var4 (nthAddrRange var3 var0))) (not (is-O_Int (read var4 (nthAddrRange var2 var0)))))))))
(assert (forall ((var0 Int) (var1 Int) (var2 AddrRange) (var3 AddrRange) (var4 Heap)) (not (and (inv_main23 var4 var3 var2 var1 var0) (and (and (is-O_Int (read var4 (nthAddrRange var3 var0))) (is-O_Int (read var4 (nthAddrRange var2 var0)))) (not (within var2 (nthAddrRange var2 var0))))))))
(assert (forall ((var0 Int) (var1 Int) (var2 AddrRange) (var3 AddrRange) (var4 Heap)) (not (and (inv_main23 var4 var3 var2 var1 var0) (and (and (and (is-O_Int (read var4 (nthAddrRange var3 var0))) (is-O_Int (read var4 (nthAddrRange var2 var0)))) (not (= (getInt (read var4 (nthAddrRange var3 var0))) (getInt (read var4 (nthAddrRange var2 var0)))))) (not (is-O_Int (read var4 (nthAddrRange var2 var0)))))))))
(assert (forall ((var0 Int) (var1 Int) (var2 AddrRange) (var3 AddrRange) (var4 Heap)) (not (and (inv_main23 var4 var3 var2 var1 var0) (and (and (and (and (is-O_Int (read var4 (nthAddrRange var3 var0))) (is-O_Int (read var4 (nthAddrRange var2 var0)))) (not (= (getInt (read var4 (nthAddrRange var3 var0))) (getInt (read var4 (nthAddrRange var2 var0)))))) (is-O_Int (read var4 (nthAddrRange var2 var0)))) (not (within var2 (nthAddrRange var2 var0))))))))
(assert (forall ((var0 Int) (var1 Int) (var2 AddrRange) (var3 AddrRange) (var4 Heap)) (not (and (inv_main23 var4 var3 var2 var1 var0) (and (and (and (and (is-O_Int (read var4 (nthAddrRange var3 var0))) (is-O_Int (read var4 (nthAddrRange var2 var0)))) (not (= (getInt (read var4 (nthAddrRange var3 var0))) (getInt (read var4 (nthAddrRange var2 var0)))))) (is-O_Int (read var4 (nthAddrRange var2 var0)))) (not (is-O_Int (read var4 (nthAddrRange var3 var0)))))))))
(assert (forall ((var0 Int) (var1 Int) (var2 AddrRange) (var3 AddrRange) (var4 Heap)) (not (and (inv_main23 var4 var3 var2 var1 var0) (and (and (and (and (and (is-O_Int (read var4 (nthAddrRange var3 var0))) (is-O_Int (read var4 (nthAddrRange var2 var0)))) (not (= (getInt (read var4 (nthAddrRange var3 var0))) (getInt (read var4 (nthAddrRange var2 var0)))))) (is-O_Int (read var4 (nthAddrRange var2 var0)))) (is-O_Int (read var4 (nthAddrRange var3 var0)))) (not (within var3 (nthAddrRange var3 var0))))))))
(assert (forall ((var0 Int) (var1 Int) (var2 AddrRange) (var3 AddrRange) (var4 Heap)) (not (and (inv_main23 var4 var3 var2 var1 var0) (and (and (and (and (and (is-O_Int (read var4 (nthAddrRange var3 var0))) (is-O_Int (read var4 (nthAddrRange var2 var0)))) (not (= (getInt (read var4 (nthAddrRange var3 var0))) (getInt (read var4 (nthAddrRange var2 var0)))))) (is-O_Int (read var4 (nthAddrRange var2 var0)))) (is-O_Int (read var4 (nthAddrRange var3 var0)))) (not (is-O_Int (read var4 (nthAddrRange var3 var0)))))))))
(assert (forall ((var0 Int) (var1 Int) (var2 AddrRange) (var3 AddrRange) (var4 Heap)) (not (and (inv_main23 var4 var3 var2 var1 var0) (and (and (and (and (and (and (is-O_Int (read var4 (nthAddrRange var3 var0))) (is-O_Int (read var4 (nthAddrRange var2 var0)))) (not (= (getInt (read var4 (nthAddrRange var3 var0))) (getInt (read var4 (nthAddrRange var2 var0)))))) (is-O_Int (read var4 (nthAddrRange var2 var0)))) (is-O_Int (read var4 (nthAddrRange var3 var0)))) (is-O_Int (read var4 (nthAddrRange var3 var0)))) (not (within var3 (nthAddrRange var3 var0))))))))
(assert (forall ((var0 Int) (var1 Int) (var2 Int) (var3 AddrRange) (var4 AddrRange) (var5 Heap)) (not (and (inv_main26 var5 var4 var3 var2 var1 var0) (= var0 0)))))
(check-sat)
